Welcome to the CBC MILP Solver 
Version: Trunk
Build Date: Apr 16 2020 

Starting solution of the Linear programming relaxation problem using Primal Simplex

Using Python-MIP package version 1.8.1
Machines:  4 Jobs:  4
Order: 
Job  0 : machine 0 ( 10 ) machine 3 ( 1 ) machine 2 ( 6 ) machine 1 ( 7 ) 
Job  1 : machine 0 ( 1 ) machine 3 ( 7 ) machine 1 ( 5 ) machine 2 ( 8 ) 
Job  2 : machine 3 ( 9 ) machine 2 ( 3 ) machine 1 ( 7 ) machine 0 ( 1 ) 
Job  3 : machine 1 ( 7 ) machine 3 ( 3 ) machine 0 ( 9 ) machine 2 ( 10 ) 
K:  44
Job  0 , e: machine  0 ( 0 ) machine  1 ( 17 ) machine  2 ( 11 ) machine  3 ( 10 ) 
Job  1 , e: machine  0 ( 0 ) machine  1 ( 8 ) machine  2 ( 13 ) machine  3 ( 1 ) 
Job  2 , e: machine  0 ( 19 ) machine  1 ( 12 ) machine  2 ( 9 ) machine  3 ( 0 ) 
Job  3 , e: machine  0 ( 10 ) machine  1 ( 0 ) machine  2 ( 19 ) machine  3 ( 7 ) 
Job  0 , f: machine  0 ( 14 ) machine  1 ( 0 ) machine  2 ( 7 ) machine  3 ( 13 ) 
Job  1 , f: machine  0 ( 20 ) machine  1 ( 8 ) machine  2 ( 0 ) machine  3 ( 13 ) 
Job  2 , f: machine  0 ( 0 ) machine  1 ( 1 ) machine  2 ( 8 ) machine  3 ( 11 ) 
Job  3 , f: machine  0 ( 10 ) machine  1 ( 22 ) machine  2 ( 0 ) machine  3 ( 19 ) 
EST and LST:
Job: 0 Machine: 0 EST: 0 LST: 20
Job: 0 Machine: 1 EST: 17 LST: 37
Job: 0 Machine: 2 EST: 11 LST: 31
Job: 0 Machine: 3 EST: 10 LST: 30
Job: 1 Machine: 0 EST: 0 LST: 23
Job: 1 Machine: 1 EST: 8 LST: 31
Job: 1 Machine: 2 EST: 13 LST: 36
Job: 1 Machine: 3 EST: 1 LST: 24
Job: 2 Machine: 0 EST: 19 LST: 43
Job: 2 Machine: 1 EST: 12 LST: 36
Job: 2 Machine: 2 EST: 9 LST: 33
Job: 2 Machine: 3 EST: 0 LST: 24
Job: 3 Machine: 0 EST: 10 LST: 25
Job: 3 Machine: 1 EST: 0 LST: 15
Job: 3 Machine: 2 EST: 19 LST: 34
Job: 3 Machine: 3 EST: 7 LST: 22
Order:
Job: 0 Machine: 0 = 0 
Job: 0 Machine: 1 = 3 
Job: 0 Machine: 2 = 2 
Job: 0 Machine: 3 = 1 
Job: 1 Machine: 0 = 0 
Job: 1 Machine: 1 = 2 
Job: 1 Machine: 2 = 3 
Job: 1 Machine: 3 = 1 
Job: 2 Machine: 0 = 3 
Job: 2 Machine: 1 = 2 
Job: 2 Machine: 2 = 1 
Job: 2 Machine: 3 = 0 
Job: 3 Machine: 0 = 2 
Job: 3 Machine: 1 = 0 
Job: 3 Machine: 2 = 3 
Job: 3 Machine: 3 = 1 
Distances:
Job 0, Machine 0 -> Machine 3: distance 10
Job 0, Machine 0 -> Machine 2: distance 11
Job 0, Machine 0 -> Machine 1: distance 17
Job 0, Machine 3 -> Machine 2: distance 1
Job 0, Machine 3 -> Machine 1: distance 7
Job 0, Machine 2 -> Machine 1: distance 6
Job 1, Machine 0 -> Machine 3: distance 1
Job 1, Machine 0 -> Machine 1: distance 8
Job 1, Machine 0 -> Machine 2: distance 13
Job 1, Machine 3 -> Machine 1: distance 7
Job 1, Machine 3 -> Machine 2: distance 12
Job 1, Machine 1 -> Machine 2: distance 5
Job 2, Machine 3 -> Machine 2: distance 9
Job 2, Machine 3 -> Machine 1: distance 12
Job 2, Machine 3 -> Machine 0: distance 19
Job 2, Machine 2 -> Machine 1: distance 3
Job 2, Machine 2 -> Machine 0: distance 10
Job 2, Machine 1 -> Machine 0: distance 7
Job 3, Machine 1 -> Machine 3: distance 7
Job 3, Machine 1 -> Machine 0: distance 10
Job 3, Machine 1 -> Machine 2: distance 19
Job 3, Machine 3 -> Machine 0: distance 3
Job 3, Machine 3 -> Machine 2: distance 12
Job 3, Machine 0 -> Machine 2: distance 9
McCormic linearization
{(0, 1), (0, 0), (2, 1), (2, 0), (1, 0), (1, 1)}
[(0, 1), (0, 0), (2, 1), (2, 0), (1, 0), (1, 1)]
obj:  0.6000000000000001
solutions:  1
+ x(0,0) + 0.1x(1,0) 
C:  29.0
x(0,0) = 0.73	 x(0,1) = 22.00	 x(0,2) = 11.73	 x(0,3) = 10.73	 
x(1,0) = 2.73	 x(1,1) = 10.73	 x(1,2) = 15.73	 x(1,3) = 3.73	 
x(2,0) = 22.73	 x(2,1) = 15.73	 x(2,2) = 12.73	 x(2,3) = 3.73	 
x(3,0) = 10.00	 x(3,1) = 0.00	 x(3,2) = 19.00	 x(3,3) = 7.00	 
y(0,1,0) = 0.13	 y(1,0,0) = 0.87	 
y(0,2,0) = 0.64	 y(2,0,0) = 0.36	 
y(0,3,0) = 0.96	 y(3,0,0) = 0.04	 
y(1,2,0) = 0.48	 y(2,1,0) = 0.52	 
y(1,3,0) = 0.74	 y(3,1,0) = 0.26	 
y(2,3,0) = 0.00	 y(3,2,0) = 1.00	 
y(0,1,1) = 0.14	 y(1,0,1) = 0.86	 
y(0,2,1) = 0.03	 y(2,0,1) = 0.97	 
y(0,3,1) = 0.00	 y(3,0,1) = 1.00	 
y(1,2,1) = 0.34	 y(2,1,1) = 0.66	 
y(1,3,1) = 0.16	 y(3,1,1) = 0.84	 
y(2,3,1) = 0.00	 y(3,2,1) = 1.00	 
y(0,1,2) = 0.36	 y(1,0,2) = 0.64	 
y(0,2,2) = 0.39	 y(2,0,2) = 0.61	 
y(0,3,2) = 1.00	 y(3,0,2) = 0.00	 
y(1,2,2) = 0.00	 y(2,1,2) = 1.00	 
y(1,3,2) = 0.43	 y(3,1,2) = 0.57	 
y(2,3,2) = 0.85	 y(3,2,2) = 0.15	 
y(0,1,3) = 0.00	 y(1,0,3) = 1.00	 
y(0,2,3) = 0.09	 y(2,0,3) = 0.91	 
y(0,3,3) = 0.04	 y(3,0,3) = 0.96	 
y(1,2,3) = 0.28	 y(2,1,3) = 0.72	 
y(1,3,3) = 0.26	 y(3,1,3) = 0.74	 
y(2,3,3) = 0.25	 y(3,2,3) = 0.75	 
{(0, 1), (0, 0), (2, 1), (2, 0), (1, 0)}
obj:  1.0000000000000004
erro
[(0, 1), (0, 0), (2, 1), (2, 0), (1, 0)]
cliques:  0 mip: 97
C:  29.0
x(0,0) = 0.95	 x(0,1) = 22.00	 x(0,2) = 11.95	 x(0,3) = 10.95	 
x(1,0) = 0.49	 x(1,1) = 8.49	 x(1,2) = 13.49	 x(1,3) = 1.49	 
x(2,0) = 22.00	 x(2,1) = 15.00	 x(2,2) = 12.00	 x(2,3) = 3.00	 
x(3,0) = 10.00	 x(3,1) = 0.00	 x(3,2) = 19.00	 x(3,3) = 7.00	 
y(0,1,0) = 0.02	 y(1,0,0) = 0.98	 
y(0,2,0) = 0.67	 y(2,0,0) = 0.33	 
y(0,3,0) = 0.95	 y(3,0,0) = 0.05	 
y(1,2,0) = 0.51	 y(2,1,0) = 0.49	 
y(1,3,0) = 0.65	 y(3,1,0) = 0.35	 
y(2,3,0) = 0.00	 y(3,2,0) = 1.00	 
y(0,1,1) = 0.08	 y(1,0,1) = 0.92	 
y(0,2,1) = 0.00	 y(2,0,1) = 1.00	 
y(0,3,1) = 0.00	 y(3,0,1) = 1.00	 
y(1,2,1) = 0.39	 y(2,1,1) = 0.61	 
y(1,3,1) = 0.06	 y(3,1,1) = 0.94	 
y(2,3,1) = 0.00	 y(3,2,1) = 1.00	 
y(0,1,2) = 0.29	 y(1,0,2) = 0.71	 
y(0,2,2) = 0.32	 y(2,0,2) = 0.68	 
y(0,3,2) = 1.00	 y(3,0,2) = 0.00	 
y(1,2,2) = 0.51	 y(2,1,2) = 0.49	 
y(1,3,2) = 0.50	 y(3,1,2) = 0.50	 
y(2,3,2) = 0.82	 y(3,2,2) = 0.18	 
y(0,1,3) = 0.45	 y(1,0,3) = 0.55	 
y(0,2,3) = 0.05	 y(2,0,3) = 0.95	 
y(0,3,3) = 0.05	 y(3,0,3) = 0.95	 
y(1,2,3) = 0.33	 y(2,1,3) = 0.67	 
y(1,3,3) = 0.35	 y(3,1,3) = 0.65	 
y(2,3,3) = 0.28	 y(3,2,3) = 0.72	 
{(1, 2), (3, 2), (0, 0), (3, 0), (0, 2), (1, 1)}
obj:  0.7969982305358947
solutions:  1
+ 0.013586956521739127x(1,2) + 0.027173913043478267x(3,2) + 0.008152173913043473x(0,2) 
[(1, 2), (3, 2), (0, 0), (3, 0), (0, 2), (1, 1)]
cliques:  1 mip: 107
C:  30.388888888888893
x(0,0) = 0.29	 x(0,1) = 23.39	 x(0,2) = 17.39	 x(0,3) = 16.39	 
x(1,0) = 7.10	 x(1,1) = 15.10	 x(1,2) = 22.39	 x(1,3) = 8.10	 
x(2,0) = 22.72	 x(2,1) = 15.72	 x(2,2) = 12.72	 x(2,3) = 3.72	 
x(3,0) = 11.39	 x(3,1) = 1.39	 x(3,2) = 20.39	 x(3,3) = 8.39	 
y(0,1,0) = 0.33	 y(1,0,0) = 0.67	 
y(0,2,0) = 0.62	 y(2,0,0) = 0.38	 
y(0,3,0) = 1.00	 y(3,0,0) = 0.00	 
y(1,2,0) = 0.38	 y(2,1,0) = 0.62	 
y(1,3,0) = 0.86	 y(3,1,0) = 0.14	 
y(2,3,0) = 0.00	 y(3,2,0) = 1.00	 
y(0,1,1) = 0.27	 y(1,0,1) = 0.73	 
y(0,2,1) = 0.19	 y(2,0,1) = 0.81	 
y(0,3,1) = 0.00	 y(3,0,1) = 1.00	 
y(1,2,1) = 0.22	 y(2,1,1) = 0.78	 
y(1,3,1) = 0.28	 y(3,1,1) = 0.72	 
y(2,3,1) = 0.00	 y(3,2,1) = 1.00	 
y(0,1,2) = 0.39	 y(1,0,2) = 0.61	 
y(0,2,2) = 0.24	 y(2,0,2) = 0.76	 
y(0,3,2) = 0.83	 y(3,0,2) = 0.17	 
y(1,2,2) = 0.28	 y(2,1,2) = 0.72	 
y(1,3,2) = 0.26	 y(3,1,2) = 0.74	 
y(2,3,2) = 0.79	 y(3,2,2) = 0.21	 
y(0,1,3) = 0.48	 y(1,0,3) = 0.52	 
y(0,2,3) = 0.17	 y(2,0,3) = 0.83	 
y(0,3,3) = 0.25	 y(3,0,3) = 0.75	 
y(1,2,3) = 0.14	 y(2,1,3) = 0.86	 
y(1,3,3) = 0.14	 y(3,1,3) = 0.86	 
y(2,3,3) = 0.31	 y(3,2,3) = 0.69	 
{(1, 3), (0, 0), (2, 3), (1, 0), (0, 3)}
obj:  1.0
erro
[(1, 3), (0, 0), (2, 3), (1, 0), (0, 3)]
cliques:  0 mip: 198
C:  33.16908850726553
x(0,0) = 0.91	 x(0,1) = 26.17	 x(0,2) = 19.29	 x(0,3) = 15.56	 
x(1,0) = 0.92	 x(1,1) = 16.60	 x(1,2) = 24.03	 x(1,3) = 9.60	 
x(2,0) = 24.33	 x(2,1) = 17.33	 x(2,2) = 14.33	 x(2,3) = 5.33	 
x(3,0) = 10.00	 x(3,1) = 0.00	 x(3,2) = 19.00	 x(3,3) = 7.00	 
y(0,1,0) = 0.04	 y(1,0,0) = 0.96	 
y(0,2,0) = 0.59	 y(2,0,0) = 0.41	 
y(0,3,0) = 0.95	 y(3,0,0) = 0.05	 
y(1,2,0) = 0.55	 y(2,1,0) = 0.45	 
y(1,3,0) = 0.66	 y(3,1,0) = 0.34	 
y(2,3,0) = 0.00	 y(3,2,0) = 1.00	 
y(0,1,1) = 0.07	 y(1,0,1) = 0.93	 
y(0,2,1) = 0.12	 y(2,0,1) = 0.88	 
y(0,3,1) = 0.00	 y(3,0,1) = 1.00	 
y(1,2,1) = 0.22	 y(2,1,1) = 0.78	 
y(1,3,1) = 0.40	 y(3,1,1) = 0.60	 
y(2,3,1) = 0.00	 y(3,2,1) = 1.00	 
y(0,1,2) = 0.91	 y(1,0,2) = 0.09	 
y(0,2,2) = 0.10	 y(2,0,2) = 0.90	 
y(0,3,2) = 0.29	 y(3,0,2) = 0.71	 
y(1,2,2) = 0.12	 y(2,1,2) = 0.88	 
y(1,3,2) = 0.48	 y(3,1,2) = 0.52	 
y(2,3,2) = 0.92	 y(3,2,2) = 0.08	 
y(0,1,3) = 0.54	 y(1,0,3) = 0.46	 
y(0,2,3) = 0.06	 y(2,0,3) = 0.94	 
y(0,3,3) = 0.28	 y(3,0,3) = 0.72	 
y(1,2,3) = 0.15	 y(2,1,3) = 0.85	 
y(1,3,3) = 0.02	 y(3,1,3) = 0.98	 
y(2,3,3) = 0.50	 y(3,2,3) = 0.50	 
{(1, 3), (3, 3), (3, 1), (2, 3), (0, 3), (1, 1)}
obj:  0.861572163219212
solutions:  1
+ 0.006167400881057261x(1,3) + 0.10102790014684292x(3,3) + 0.015271659324522782x(2,3) + 0.0008810572687224455x(0,3) 
[(1, 3), (3, 3), (3, 1), (2, 3), (0, 3), (1, 1)]
cliques:  1 mip: 203
C:  34.000000000000014
x(0,0) = 0.41	 x(0,1) = 24.79	 x(0,2) = 17.08	 x(0,3) = 14.84	 
x(1,0) = 5.90	 x(1,1) = 13.90	 x(1,2) = 18.90	 x(1,3) = 6.90	 
x(2,0) = 24.49	 x(2,1) = 17.49	 x(2,2) = 14.49	 x(2,3) = 5.49	 
x(3,0) = 13.64	 x(3,1) = 3.64	 x(3,2) = 22.64	 x(3,3) = 10.64	 
y(0,1,0) = 0.27	 y(1,0,0) = 0.73	 
y(0,2,0) = 0.72	 y(2,0,0) = 0.28	 
y(0,3,0) = 0.66	 y(3,0,0) = 0.34	 
y(1,2,0) = 0.53	 y(2,1,0) = 0.47	 
y(1,3,0) = 0.72	 y(3,1,0) = 0.28	 
y(2,3,0) = 0.00	 y(3,2,0) = 1.00	 
y(0,1,1) = 0.00	 y(1,0,1) = 1.00	 
y(0,2,1) = 0.13	 y(2,0,1) = 0.87	 
y(0,3,1) = 0.00	 y(3,0,1) = 1.00	 
y(1,2,1) = 0.30	 y(2,1,1) = 0.70	 
y(1,3,1) = -0.00	 y(3,1,1) = 1.00	 
y(2,3,1) = 0.00	 y(3,2,1) = 1.00	 
y(0,1,2) = 0.83	 y(1,0,2) = 0.17	 
y(0,2,2) = 0.23	 y(2,0,2) = 0.77	 
y(0,3,2) = 0.98	 y(3,0,2) = 0.02	 
y(1,2,2) = 0.37	 y(2,1,2) = 0.63	 
y(1,3,2) = 0.83	 y(3,1,2) = 0.17	 
y(2,3,2) = 0.77	 y(3,2,2) = 0.23	 
y(0,1,3) = 0.60	 y(1,0,3) = 0.40	 
y(0,2,3) = 0.02	 y(2,0,3) = 0.98	 
y(0,3,3) = 0.06	 y(3,0,3) = 0.94	 
y(1,2,3) = 0.24	 y(2,1,3) = 0.76	 
y(1,3,3) = 0.28	 y(3,1,3) = 0.72	 
y(2,3,3) = 0.33	 y(3,2,3) = 0.67	 
{(0, 0), (2, 1), (2, 0), (1, 0), (1, 1)}
obj:  0.9999999999999999
erro
[(0, 0), (2, 1), (2, 0), (1, 0), (1, 1)]
cliques:  0 mip: 202
C:  33.99999999999999
x(0,0) = 1.58	 x(0,1) = 22.00	 x(0,2) = 16.00	 x(0,3) = 12.49	 
x(1,0) = 0.51	 x(1,1) = 8.51	 x(1,2) = 16.00	 x(1,3) = 1.51	 
x(2,0) = 23.04	 x(2,1) = 16.04	 x(2,2) = 12.14	 x(2,3) = 3.14	 
x(3,0) = 12.22	 x(3,1) = 2.22	 x(3,2) = 24.00	 x(3,3) = 9.22	 
y(0,1,0) = 0.00	 y(1,0,0) = 1.00	 
y(0,2,0) = 0.51	 y(2,0,0) = 0.49	 
y(0,3,0) = 0.84	 y(3,0,0) = 0.16	 
y(1,2,0) = 0.71	 y(2,1,0) = 0.29	 
y(1,3,0) = 0.61	 y(3,1,0) = 0.39	 
y(2,3,0) = 0.00	 y(3,2,0) = 1.00	 
y(0,1,1) = 0.00	 y(1,0,1) = 1.00	 
y(0,2,1) = 0.07	 y(2,0,1) = 0.93	 
y(0,3,1) = 0.00	 y(3,0,1) = 1.00	 
y(1,2,1) = 0.50	 y(2,1,1) = 0.50	 
y(1,3,1) = 0.14	 y(3,1,1) = 0.86	 
y(2,3,1) = 0.00	 y(3,2,1) = 1.00	 
y(0,1,2) = 0.71	 y(1,0,2) = 0.29	 
y(0,2,2) = 0.23	 y(2,0,2) = 0.77	 
y(0,3,2) = 1.00	 y(3,0,2) = 0.00	 
y(1,2,2) = 0.22	 y(2,1,2) = 0.78	 
y(1,3,2) = 1.00	 y(3,1,2) = 0.00	 
y(2,3,2) = 0.62	 y(3,2,2) = 0.38	 
y(0,1,3) = 0.27	 y(1,0,3) = 0.73	 
y(0,2,3) = 0.02	 y(2,0,3) = 0.98	 
y(0,3,3) = 0.01	 y(3,0,3) = 0.99	 
y(1,2,3) = 0.33	 y(2,1,3) = 0.67	 
y(1,3,3) = 0.59	 y(3,1,3) = 0.41	 
y(2,3,3) = 0.36	 y(3,2,3) = 0.64	 
{(0, 1), (1, 3), (2, 1), (1, 1), (2, 3), (2, 2), (0, 2)}
obj:  0.5173449762616131
solutions:  1
+ 0.1111111111111111x(1,3) + 0.11111111111111112x(2,3) 
[(0, 1), (1, 3), (2, 1), (1, 1), (2, 3), (2, 2), (0, 2)]
cliques:  1 mip: 182
C:  33.99999999999999
x(0,0) = 1.00	 x(0,1) = 27.00	 x(0,2) = 17.67	 x(0,3) = 11.95	 
x(1,0) = 3.00	 x(1,1) = 11.00	 x(1,2) = 16.00	 x(1,3) = 4.00	 
x(2,0) = 24.27	 x(2,1) = 17.27	 x(2,2) = 14.00	 x(2,3) = 5.00	 
x(3,0) = 11.79	 x(3,1) = 1.79	 x(3,2) = 24.00	 x(3,3) = 8.79	 
y(0,1,0) = 0.73	 y(1,0,0) = 0.27	 
y(0,2,0) = 0.74	 y(2,0,0) = 0.26	 
y(0,3,0) = 0.85	 y(3,0,0) = 0.15	 
y(1,2,0) = 0.51	 y(2,1,0) = 0.49	 
y(1,3,0) = 0.95	 y(3,1,0) = 0.05	 
y(2,3,0) = 0.00	 y(3,2,0) = 1.00	 
y(0,1,1) = 0.02	 y(1,0,1) = 0.98	 
y(0,2,1) = 0.02	 y(2,0,1) = 0.98	 
y(0,3,1) = 0.00	 y(3,0,1) = 1.00	 
y(1,2,1) = 0.78	 y(2,1,1) = 0.22	 
y(1,3,1) = 0.00	 y(3,1,1) = 1.00	 
y(2,3,1) = 0.00	 y(3,2,1) = 1.00	 
y(0,1,2) = 0.31	 y(1,0,2) = 0.69	 
y(0,2,2) = 0.12	 y(2,0,2) = 0.88	 
y(0,3,2) = 0.97	 y(3,0,2) = 0.03	 
y(1,2,2) = 0.49	 y(2,1,2) = 0.51	 
y(1,3,2) = 1.00	 y(3,1,2) = 0.00	 
y(2,3,2) = 0.81	 y(3,2,2) = 0.19	 
y(0,1,3) = 0.30	 y(1,0,3) = 0.70	 
y(0,2,3) = 0.09	 y(2,0,3) = 0.91	 
y(0,3,3) = 0.01	 y(3,0,3) = 0.99	 
y(1,2,3) = 0.57	 y(2,1,3) = 0.43	 
y(1,3,3) = 0.91	 y(3,1,3) = 0.09	 
y(2,3,3) = 0.53	 y(3,2,3) = 0.47	 
{(1, 2), (1, 3), (1, 1), (2, 3), (2, 2), (0, 3), (0, 2)}
obj:  0.8862487148846387
solutions:  1
+ 0.06713164777680909x(1,3) + 0.061028770706190054x(2,3) + 0.026155187445510035x(0,3) 
[(1, 2), (1, 3), (1, 1), (2, 3), (2, 2), (0, 3), (0, 2)]
cliques:  1 mip: 0
C:  33.99999999999999
x(0,0) = 1.00	 x(0,1) = 27.00	 x(0,2) = 17.67	 x(0,3) = 14.69	 
x(1,0) = 3.00	 x(1,1) = 11.00	 x(1,2) = 16.00	 x(1,3) = 4.00	 
x(2,0) = 24.69	 x(2,1) = 17.69	 x(2,2) = 14.69	 x(2,3) = 5.69	 
x(3,0) = 11.67	 x(3,1) = 1.67	 x(3,2) = 24.00	 x(3,3) = 8.67	 
y(0,1,0) = 0.73	 y(1,0,0) = 0.27	 
y(0,2,0) = 0.73	 y(2,0,0) = 0.27	 
y(0,3,0) = 0.84	 y(3,0,0) = 0.16	 
y(1,2,0) = 0.52	 y(2,1,0) = 0.48	 
y(1,3,0) = 0.95	 y(3,1,0) = 0.05	 
y(2,3,0) = 0.00	 y(3,2,0) = 1.00	 
y(0,1,1) = 0.00	 y(1,0,1) = 1.00	 
y(0,2,1) = 0.03	 y(2,0,1) = 0.97	 
y(0,3,1) = 0.00	 y(3,0,1) = 1.00	 
y(1,2,1) = 0.80	 y(2,1,1) = 0.20	 
y(1,3,1) = 0.00	 y(3,1,1) = 1.00	 
y(2,3,1) = 0.00	 y(3,2,1) = 1.00	 
y(0,1,2) = 0.31	 y(1,0,2) = 0.69	 
y(0,2,2) = 0.16	 y(2,0,2) = 0.84	 
y(0,3,2) = 0.97	 y(3,0,2) = 0.03	 
y(1,2,2) = 0.52	 y(2,1,2) = 0.48	 
y(1,3,2) = 1.00	 y(3,1,2) = 0.00	 
y(2,3,2) = 0.83	 y(3,2,2) = 0.17	 
y(0,1,3) = 0.24	 y(1,0,3) = 0.76	 
y(0,2,3) = 0.00	 y(2,0,3) = 1.00	 
y(0,3,3) = 0.30	 y(3,0,3) = 0.70	 
y(1,2,3) = 0.63	 y(2,1,3) = 0.37	 
y(1,3,3) = 0.90	 y(3,1,3) = 0.10	 
y(2,3,3) = 0.51	 y(3,2,3) = 0.49	 
{(1, 3), (3, 1), (2, 3), (3, 3)}
obj:  0.8592733986629334
solutions:  1
+ 0.06306306306306307x(1,3) + 0.06552006552006553x(2,3) + 0.027027027027027018x(3,3) 
[(1, 3), (3, 1), (2, 3), (3, 3)]
cliques:  1 mip: 0
C:  33.99999999999999
x(0,0) = 1.00	 x(0,1) = 26.22	 x(0,2) = 17.83	 x(0,3) = 11.55	 
x(1,0) = 3.00	 x(1,1) = 11.00	 x(1,2) = 16.00	 x(1,3) = 4.00	 
x(2,0) = 26.97	 x(2,1) = 19.97	 x(2,2) = 16.97	 x(2,3) = 7.97	 
x(3,0) = 11.35	 x(3,1) = 1.35	 x(3,2) = 24.00	 x(3,3) = 8.35	 
y(0,1,0) = 0.73	 y(1,0,0) = 0.27	 
y(0,2,0) = 0.73	 y(2,0,0) = 0.27	 
y(0,3,0) = 0.83	 y(3,0,0) = 0.17	 
y(1,2,0) = 0.57	 y(2,1,0) = 0.43	 
y(1,3,0) = 0.94	 y(3,1,0) = 0.06	 
y(2,3,0) = 0.00	 y(3,2,0) = 1.00	 
y(0,1,1) = 0.00	 y(1,0,1) = 1.00	 
y(0,2,1) = 0.07	 y(2,0,1) = 0.93	 
y(0,3,1) = 0.00	 y(3,0,1) = 1.00	 
y(1,2,1) = 0.89	 y(2,1,1) = 0.11	 
y(1,3,1) = 0.00	 y(3,1,1) = 1.00	 
y(2,3,1) = 0.00	 y(3,2,1) = 1.00	 
y(0,1,2) = 0.27	 y(1,0,2) = 0.73	 
y(0,2,2) = 0.25	 y(2,0,2) = 0.75	 
y(0,3,2) = 0.97	 y(3,0,2) = 0.03	 
y(1,2,2) = 0.57	 y(2,1,2) = 0.43	 
y(1,3,2) = 1.00	 y(3,1,2) = 0.00	 
y(2,3,2) = 0.89	 y(3,2,2) = 0.11	 
y(0,1,3) = 0.32	 y(1,0,3) = 0.68	 
y(0,2,3) = 0.24	 y(2,0,3) = 0.76	 
y(0,3,3) = 0.01	 y(3,0,3) = 0.99	 
y(1,2,3) = 0.76	 y(2,1,3) = 0.24	 
y(1,3,3) = 0.89	 y(3,1,3) = 0.11	 
y(2,3,3) = 0.38	 y(3,2,3) = 0.62	 
{(1, 2), (0, 1), (1, 3), (1, 1), (2, 3), (2, 2), (0, 3), (0, 2)}
obj:  1.0569382482281011
erro
[(1, 2), (0, 1), (1, 3), (1, 1), (2, 3), (2, 2), (0, 3), (0, 2)]
cliques:  0 mip: 0
iterações: 9 cortes cliques encontrados: 6 mip: 1035 objective:  33.99999999999999
Coin0506I Presolve 157 (-171) rows, 90 (-71) columns and 490 (-260) elements
Clp1000I sum of infeasibilities 1.79124e-08 - average 1.14092e-10, 0 fixed columns
Coin0506I Presolve 157 (0) rows, 90 (0) columns and 490 (0) elements
Clp0029I End of values pass after 90 iterations
Clp0000I Optimal - objective value 29
Clp0000I Optimal - objective value 29
Coin0511I After Postsolve, objective 29, infeasibilities - dual 0 (0), primal 0 (0)
Clp0000I Optimal - objective value 29
Clp0000I Optimal - objective value 29
Clp0000I Optimal - objective value 29
Coin0511I After Postsolve, objective 29, infeasibilities - dual 0 (0), primal 0 (0)
Clp0032I Optimal objective 29 - 0 iterations time 0.012, Presolve 0.00, Idiot 0.01
Coin3009W Conflict graph built in 0.000 seconds, density: 0.070%
